c File: flat50_3_0.col
c
c SOURCE: Joseph Culberson (joe@cs.ualberta.ca)
c DESCRIPTION: Quasi-random coloring problem
c              generated with flatness = 0
c                             probability = 0.139
c                             known coloring = 3
c                             random seed = 1079
c              Creation Date:  Tue Jun  9 12:00:39 1998
c Maximum degree = 8 Minimum degree = 0
c p edge 50 115
c cnf created by edge2cnf
p cnf 150 545
-1 -2 0
-1 -3 0
-2 -3 0
1 2 3 0
-4 -5 0
-4 -6 0
-5 -6 0
4 5 6 0
-7 -8 0
-7 -9 0
-8 -9 0
7 8 9 0
-10 -11 0
-10 -12 0
-11 -12 0
10 11 12 0
-13 -14 0
-13 -15 0
-14 -15 0
13 14 15 0
-16 -17 0
-16 -18 0
-17 -18 0
16 17 18 0
-19 -20 0
-19 -21 0
-20 -21 0
19 20 21 0
-22 -23 0
-22 -24 0
-23 -24 0
22 23 24 0
-25 -26 0
-25 -27 0
-26 -27 0
25 26 27 0
-28 -29 0
-28 -30 0
-29 -30 0
28 29 30 0
-31 -32 0
-31 -33 0
-32 -33 0
31 32 33 0
-34 -35 0
-34 -36 0
-35 -36 0
34 35 36 0
-37 -38 0
-37 -39 0
-38 -39 0
37 38 39 0
-40 -41 0
-40 -42 0
-41 -42 0
40 41 42 0
-43 -44 0
-43 -45 0
-44 -45 0
43 44 45 0
-46 -47 0
-46 -48 0
-47 -48 0
46 47 48 0
-49 -50 0
-49 -51 0
-50 -51 0
49 50 51 0
-52 -53 0
-52 -54 0
-53 -54 0
52 53 54 0
-55 -56 0
-55 -57 0
-56 -57 0
55 56 57 0
-58 -59 0
-58 -60 0
-59 -60 0
58 59 60 0
-61 -62 0
-61 -63 0
-62 -63 0
61 62 63 0
-64 -65 0
-64 -66 0
-65 -66 0
64 65 66 0
-67 -68 0
-67 -69 0
-68 -69 0
67 68 69 0
-70 -71 0
-70 -72 0
-71 -72 0
70 71 72 0
-73 -74 0
-73 -75 0
-74 -75 0
73 74 75 0
-76 -77 0
-76 -78 0
-77 -78 0
76 77 78 0
-79 -80 0
-79 -81 0
-80 -81 0
79 80 81 0
-82 -83 0
-82 -84 0
-83 -84 0
82 83 84 0
-85 -86 0
-85 -87 0
-86 -87 0
85 86 87 0
-88 -89 0
-88 -90 0
-89 -90 0
88 89 90 0
-91 -92 0
-91 -93 0
-92 -93 0
91 92 93 0
-94 -95 0
-94 -96 0
-95 -96 0
94 95 96 0
-97 -98 0
-97 -99 0
-98 -99 0
97 98 99 0
-100 -101 0
-100 -102 0
-101 -102 0
100 101 102 0
-103 -104 0
-103 -105 0
-104 -105 0
103 104 105 0
-106 -107 0
-106 -108 0
-107 -108 0
106 107 108 0
-109 -110 0
-109 -111 0
-110 -111 0
109 110 111 0
-112 -113 0
-112 -114 0
-113 -114 0
112 113 114 0
-115 -116 0
-115 -117 0
-116 -117 0
115 116 117 0
-118 -119 0
-118 -120 0
-119 -120 0
118 119 120 0
-121 -122 0
-121 -123 0
-122 -123 0
121 122 123 0
-124 -125 0
-124 -126 0
-125 -126 0
124 125 126 0
-127 -128 0
-127 -129 0
-128 -129 0
127 128 129 0
-130 -131 0
-130 -132 0
-131 -132 0
130 131 132 0
-133 -134 0
-133 -135 0
-134 -135 0
133 134 135 0
-136 -137 0
-136 -138 0
-137 -138 0
136 137 138 0
-139 -140 0
-139 -141 0
-140 -141 0
139 140 141 0
-142 -143 0
-142 -144 0
-143 -144 0
142 143 144 0
-145 -146 0
-145 -147 0
-146 -147 0
145 146 147 0
-148 -149 0
-148 -150 0
-149 -150 0
148 149 150 0
-58 -1 0
-59 -2 0
-60 -3 0
-82 -1 0
-83 -2 0
-84 -3 0
-124 -1 0
-125 -2 0
-126 -3 0
-133 -1 0
-134 -2 0
-135 -3 0
-139 -1 0
-140 -2 0
-141 -3 0
-73 -4 0
-74 -5 0
-75 -6 0
-76 -4 0
-77 -5 0
-78 -6 0
-85 -4 0
-86 -5 0
-87 -6 0
-133 -4 0
-134 -5 0
-135 -6 0
-142 -4 0
-143 -5 0
-144 -6 0
-67 -7 0
-68 -8 0
-69 -9 0
-85 -7 0
-86 -8 0
-87 -9 0
-130 -7 0
-131 -8 0
-132 -9 0
-136 -7 0
-137 -8 0
-138 -9 0
-55 -10 0
-56 -11 0
-57 -12 0
-70 -10 0
-71 -11 0
-72 -12 0
-88 -10 0
-89 -11 0
-90 -12 0
-91 -10 0
-92 -11 0
-93 -12 0
-127 -10 0
-128 -11 0
-129 -12 0
-136 -10 0
-137 -11 0
-138 -12 0
-145 -10 0
-146 -11 0
-147 -12 0
-148 -10 0
-149 -11 0
-150 -12 0
-52 -13 0
-53 -14 0
-54 -15 0
-79 -13 0
-80 -14 0
-81 -15 0
-94 -13 0
-95 -14 0
-96 -15 0
-103 -13 0
-104 -14 0
-105 -15 0
-130 -13 0
-131 -14 0
-132 -15 0
-133 -13 0
-134 -14 0
-135 -15 0
-61 -16 0
-62 -17 0
-63 -18 0
-118 -16 0
-119 -17 0
-120 -18 0
-55 -19 0
-56 -20 0
-57 -21 0
-97 -19 0
-98 -20 0
-99 -21 0
-133 -19 0
-134 -20 0
-135 -21 0
-64 -22 0
-65 -23 0
-66 -24 0
-91 -25 0
-92 -26 0
-93 -27 0
-103 -25 0
-104 -26 0
-105 -27 0
-106 -25 0
-107 -26 0
-108 -27 0
-130 -25 0
-131 -26 0
-132 -27 0
-88 -28 0
-89 -29 0
-90 -30 0
-91 -28 0
-92 -29 0
-93 -30 0
-109 -28 0
-110 -29 0
-111 -30 0
-145 -28 0
-146 -29 0
-147 -30 0
-76 -31 0
-77 -32 0
-78 -33 0
-130 -31 0
-131 -32 0
-132 -33 0
-52 -34 0
-53 -35 0
-54 -36 0
-61 -34 0
-62 -35 0
-63 -36 0
-88 -34 0
-89 -35 0
-90 -36 0
-109 -34 0
-110 -35 0
-111 -36 0
-118 -34 0
-119 -35 0
-120 -36 0
-124 -34 0
-125 -35 0
-126 -36 0
-139 -34 0
-140 -35 0
-141 -36 0
-55 -37 0
-56 -38 0
-57 -39 0
-91 -37 0
-92 -38 0
-93 -39 0
-109 -37 0
-110 -38 0
-111 -39 0
-52 -40 0
-53 -41 0
-54 -42 0
-73 -40 0
-74 -41 0
-75 -42 0
-88 -40 0
-89 -41 0
-90 -42 0
-97 -40 0
-98 -41 0
-99 -42 0
-124 -40 0
-125 -41 0
-126 -42 0
-142 -40 0
-143 -41 0
-144 -42 0
-52 -43 0
-53 -44 0
-54 -45 0
-61 -43 0
-62 -44 0
-63 -45 0
-73 -43 0
-74 -44 0
-75 -45 0
-76 -43 0
-77 -44 0
-78 -45 0
-109 -43 0
-110 -44 0
-111 -45 0
-136 -43 0
-137 -44 0
-138 -45 0
-142 -43 0
-143 -44 0
-144 -45 0
-61 -46 0
-62 -47 0
-63 -48 0
-70 -46 0
-71 -47 0
-72 -48 0
-79 -46 0
-80 -47 0
-81 -48 0
-82 -46 0
-83 -47 0
-84 -48 0
-103 -46 0
-104 -47 0
-105 -48 0
-142 -46 0
-143 -47 0
-144 -48 0
-58 -49 0
-59 -50 0
-60 -51 0
-103 -49 0
-104 -50 0
-105 -51 0
-106 -49 0
-107 -50 0
-108 -51 0
-139 -49 0
-140 -50 0
-141 -51 0
-124 -52 0
-125 -53 0
-126 -54 0
-127 -52 0
-128 -53 0
-129 -54 0
-136 -52 0
-137 -53 0
-138 -54 0
-130 -55 0
-131 -56 0
-132 -57 0
-148 -55 0
-149 -56 0
-150 -57 0
-136 -58 0
-137 -59 0
-138 -60 0
-133 -64 0
-134 -65 0
-135 -66 0
-148 -64 0
-149 -65 0
-150 -66 0
-106 -67 0
-107 -68 0
-108 -69 0
-109 -67 0
-110 -68 0
-111 -69 0
-121 -67 0
-122 -68 0
-123 -69 0
-109 -70 0
-110 -71 0
-111 -72 0
-130 -70 0
-131 -71 0
-132 -72 0
-142 -70 0
-143 -71 0
-144 -72 0
-133 -73 0
-134 -74 0
-135 -75 0
-145 -76 0
-146 -77 0
-147 -78 0
-121 -79 0
-122 -80 0
-123 -81 0
-142 -79 0
-143 -80 0
-144 -81 0
-109 -82 0
-110 -83 0
-111 -84 0
-118 -82 0
-119 -83 0
-120 -84 0
-139 -82 0
-140 -83 0
-141 -84 0
-142 -82 0
-143 -83 0
-144 -84 0
-103 -85 0
-104 -86 0
-105 -87 0
-133 -85 0
-134 -86 0
-135 -87 0
-118 -88 0
-119 -89 0
-120 -90 0
-121 -88 0
-122 -89 0
-123 -90 0
-124 -88 0
-125 -89 0
-126 -90 0
-121 -91 0
-122 -92 0
-123 -93 0
-130 -91 0
-131 -92 0
-132 -93 0
-136 -91 0
-137 -92 0
-138 -93 0
-145 -91 0
-146 -92 0
-147 -93 0
-103 -94 0
-104 -95 0
-105 -96 0
-124 -97 0
-125 -98 0
-126 -99 0
-133 -97 0
-134 -98 0
-135 -99 0
-139 -97 0
-140 -98 0
-141 -99 0
-115 -100 0
-116 -101 0
-117 -102 0
-130 -100 0
-131 -101 0
-132 -102 0
-148 -100 0
-149 -101 0
-150 -102 0
